c   #vars: 556   #clauses: 2216   #literals: 6698
c 
p cnf 556 2216
-17 -473 0
397 400 498 0
45 398 400 418 0
-45 46 399 418 0
43 161 473 482 0
-43 44 162 482 0
400 -410 0
-400 410 0
491 -492 0
-491 492 0
-20 27 29 0
-19 22 0
18 -19 -20 0
50 -96 108 0
-37 -38 286 289 -346 404 425 489 508 531 0
-15 -16 0
15 16 0
347 348 353 364 0
-348 349 354 364 0
14 -15 0
-111 -112 -136 -379 395 0
16 308 323 0
-14 15 0
14 16 0
-397 -400 0
49 95 0
-95 -96 108 -110 0
-397 -498 0
17 473 476 0
32 161 473 491 0
-32 33 162 491 0
278 -279 350 521 0
279 351 510 521 0
-17 -476 0
473 -495 0
-473 495 0
281 534 535 541 0
-280 -535 0
45 171 -173 0
-433 -434 -436 0
284 300 305 0
37 134 0
284 -296 0
-284 296 0
284 -299 0
-284 299 0
284 -304 0
-284 304 0
-16 -308 0
329 -330 0
-329 330 0
-471 472 534 548 0
528 529 542 0
529 -538 0
-529 538 0
529 -541 0
-529 541 0
529 -548 0
-529 548 0
-471 -545 0
472 534 545 548 0
115 117 0
-115 116 0
-208 -233 -234 252 0
352 444 525 0
-528 -542 0
352 -521 0
-352 521 0
352 -522 0
-352 522 0
-444 -525 0
-47 -308 0
15 -47 48 329 0
418 -419 0
-418 419 0
117 120 441 0
-208 233 234 252 0
-190 -193 213 237 0
-190 -193 204 237 0
120 -126 0
-120 126 0
120 -261 0
-120 261 0
291 300 0
-291 292 0
347 355 358 0
167 398 400 406 0
-167 168 399 406 0
-355 -358 0
353 -354 0
-308 315 0
308 338 0
-353 -355 0
-208 230 -246 249 252 0
349 388 0
-20 38 0
157 292 301 304 0
-156 -301 0
-208 232 -247 249 252 0
-353 354 0
353 355 0
233 234 -249 0
-354 -355 0
354 355 0
111 -389 0
-111 389 0
111 -394 0
-111 394 0
-111 -112 -136 -383 -386 395 0
112 -390 0
-112 390 0
112 -396 0
-112 396 0
112 137 0
-112 -137 0
-25 -127 -128 136 144 151 173 177 180 188 272 313 327 362 371 416 436 448 466 469 480 514 0
24 -127 0
-24 127 0
24 -143 0
-24 143 0
24 -150 0
-24 150 0
24 -172 0
-24 172 0
24 -176 0
-24 176 0
24 -179 0
-24 179 0
24 -187 0
-24 187 0
24 -271 0
-24 271 0
24 -312 0
-24 312 0
24 -326 0
-24 326 0
24 -361 0
-24 361 0
24 -370 0
-24 370 0
24 -415 0
-24 415 0
24 -435 0
-24 435 0
24 -447 0
-24 447 0
24 -465 0
-24 465 0
24 -468 0
-24 468 0
24 -479 0
-24 479 0
24 -513 0
-24 513 0
25 -136 0
25 -144 0
25 -151 0
25 -173 0
25 -177 0
25 -180 0
25 -188 0
25 -272 0
25 -313 0
25 -327 0
25 -362 0
25 -371 0
25 -416 0
25 -436 0
25 -448 0
25 -466 0
25 -469 0
25 -480 0
25 -514 0
-25 127 128 136 144 151 173 177 180 188 272 313 327 362 371 416 436 448 466 469 480 514 0
26 -128 0
-26 128 0
26 -137 0
-26 137 0
26 -145 0
-26 145 0
26 -152 0
-26 152 0
26 -174 0
-26 174 0
26 -178 0
-26 178 0
26 -181 0
-26 181 0
26 -189 0
-26 189 0
26 -273 0
-26 273 0
26 -314 0
-26 314 0
26 -328 0
-26 328 0
26 -363 0
-26 363 0
26 -372 0
-26 372 0
26 -417 0
-26 417 0
26 -437 0
-26 437 0
26 -449 0
-26 449 0
26 -467 0
-26 467 0
26 -470 0
-26 470 0
26 -481 0
-26 481 0
26 -515 0
-26 515 0
73 -84 87 -220 0
68 -84 87 -220 0
87 201 203 -220 0
-59 -66 -67 69 199 241 0
70 -85 87 -220 0
-85 87 203 -220 0
26 -44 0
147 149 152 0
-156 157 292 304 0
278 445 -447 0
156 291 301 304 0
156 -157 291 304 0
-148 -299 0
15 48 308 329 0
-157 -301 0
-149 -299 0
-149 -292 0
14 47 -48 329 0
-156 -291 0
347 349 354 364 0
-280 -533 0
26 -119 0
26 -281 0
-84 87 201 -220 0
26 -149 0
-163 -164 -177 0
-165 167 -177 0
26 388 0
-368 -371 -386 0
-368 -371 383 0
281 -464 0
-281 464 0
471 533 545 548 0
471 -472 533 548 0
-280 -541 0
-59 -67 69 80 199 241 0
-472 -545 0
-281 -541 0
482 -483 0
-482 483 0
-281 -534 0
55 57 -59 69 199 241 0
-471 -533 0
33 162 473 491 0
-115 -117 0
115 -116 0
26 -279 0
24 -118 0
279 446 -449 0
30 31 -180 0
-30 32 -180 0
-30 -36 -180 0
280 533 535 541 0
280 -281 533 541 0
-278 -521 0
-397 -399 0
-281 -535 0
-279 -521 0
274 -275 0
-274 275 0
-279 -351 0
-398 399 0
350 -456 0
-350 456 0
-397 -398 0
398 -399 0
351 -457 0
-351 457 0
-292 -300 0
292 300 0
-278 -350 0
119 124 -128 0
-26 44 46 48 119 149 279 281 349 0
64 65 -87 0
26 -349 0
-193 213 215 237 0
-118 -274 0
-191 -193 215 237 0
-119 -274 0
53 -193 237 0
406 -407 0
-406 407 0
-116 -119 0
-151 156 157 0
-146 -151 -160 0
116 -125 0
-116 125 0
-18 19 -20 0
18 -20 -22 0
-291 -300 0
291 -292 0
24 -47 0
68 70 87 -220 0
348 387 0
24 -348 0
-424 -426 -427 -436 0
146 148 150 0
-146 -148 150 0
146 -148 -150 0
347 -379 -380 0
-146 148 -150 0
-391 -463 -466 0
-462 -466 471 0
-376 -379 -380 0
379 380 0
-111 -112 -136 388 -390 395 0
111 112 -136 0
167 -168 398 406 0
-348 -364 0
-168 -400 0
-349 -364 0
-167 -400 0
-352 450 0
-349 -354 0
353 -385 0
-353 385 0
-208 236 -246 249 252 0
354 -386 0
-354 386 0
19 -22 0
-18 -20 22 0
73 75 87 -220 0
75 -85 87 -220 0
-64 -65 -220 0
-395 -462 -463 0
-391 -395 471 0
348 -369 -371 -372 0
-193 198 200 237 0
-190 -193 198 237 0
64 65 -220 0
48 -186 0
-48 186 0
48 -311 0
-48 311 0
348 -349 353 364 0
-47 -329 0
-347 -349 0
308 -315 -335 0
-48 -329 0
-347 -348 0
-352 -444 0
14 -316 0
-14 316 0
-15 -48 0
113 114 -505 0
-92 -94 -505 0
15 -317 0
-15 317 0
-315 -335 -338 0
-371 -385 -386 0
-45 -169 -172 0
-43 -161 0
24 -45 0
1 -38 286 289 -333 -334 374 404 425 489 508 531 0
1 -38 193 286 289 374 404 425 489 508 531 0
182 -309 -313 0
-310 -313 -316 0
24 387 0
46 -171 0
-46 171 0
46 -175 0
-46 175 0
43 -44 161 482 0
-45 -418 0
-44 -473 0
-401 -402 -404 0
401 402 -404 0
-351 -444 0
-46 -418 0
-43 -473 0
364 -365 0
-364 365 0
45 -46 398 418 0
-46 -399 0
-350 351 0
44 162 473 482 0
-350 -444 0
350 -351 0
-116 -117 0
116 117 0
-24 43 45 47 118 148 278 280 -387 0
31 44 181 0
-49 -96 108 110 0
3 87 -220 0
118 123 -127 0
32 -33 161 491 0
-43 -482 0
-33 -473 0
-278 279 351 521 0
-44 -482 0
-32 -473 0
-44 -162 0
278 350 510 521 0
-533 534 0
-139 -256 -265 267 270 0
-139 -255 -264 267 269 0
-32 -161 0
-528 -534 0
533 -534 0
-280 281 534 541 0
257 -258 0
-257 258 0
-233 -234 -249 0
-31 -34 -180 0
37 -38 286 289 346 404 425 489 508 531 0
-37 -134 0
-25 -123 -124 136 144 151 173 177 180 188 272 313 327 362 371 416 436 448 466 469 480 514 0
-147 -151 157 0
-38 134 286 289 -346 404 425 489 508 531 0
-38 -134 286 289 346 404 425 489 508 531 0
134 -333 0
-134 333 0
134 -373 0
-134 373 0
-111 -112 -136 369 -384 395 0
-371 383 384 0
-368 -369 -371 0
135 -334 0
-135 334 0
135 -375 0
-135 375 0
135 346 0
-135 -346 0
37 -285 0
-37 285 0
37 -288 0
-37 288 0
1 3 6 9 12 -111 -112 0
37 -403 0
-37 403 0
37 -424 0
-37 424 0
37 -488 0
-37 488 0
37 -507 0
-37 507 0
37 -530 0
-37 530 0
38 -286 0
38 -289 0
38 -404 0
38 -425 0
38 -489 0
38 -508 0
38 -531 0
39 -287 0
-39 287 0
39 -290 0
-39 290 0
39 -346 0
-39 346 0
39 -405 0
-39 405 0
39 -426 0
-39 426 0
39 -490 0
-39 490 0
39 -509 0
-39 509 0
39 -532 0
-39 532 0
22 37 0
37 40 0
27 37 0
38 -41 0
-28 38 0
23 39 0
39 42 0
29 39 0
-27 -34 0
-25 -121 -122 136 144 151 173 177 180 188 272 313 327 362 371 416 436 448 466 469 480 514 0
28 -35 0
-29 -36 0
-34 -316 0
-34 -315 0
-111 -112 -136 383 384 395 0
-327 333 334 335 0
-36 -317 0
-36 -315 0
-111 -112 -136 -385 -386 395 0
182 184 0
-182 -184 0
183 185 0
-183 -185 0
-391 -395 -463 0
-184 -187 0
-196 214 217 -225 -227 244 342 0
-185 -186 0
-185 -189 0
309 312 0
-183 -188 -316 0
-111 -112 -136 -383 -384 395 0
310 311 0
310 314 0
-33 -162 0
-32 -491 0
-279 -510 0
-528 -533 0
-33 -491 0
-278 -510 0
-58 -104 0
-40 -129 0
-40 -121 0
-40 -131 0
-146 -147 -151 0
41 -132 0
-42 -130 0
-42 -122 0
-42 -133 0
131 453 0
132 -454 0
133 455 0
453 471 0
-134 -135 -374 0
-165 -166 -177 0
-505 -525 0
455 472 0
-472 -534 0
55 -59 -66 69 199 241 0
-471 -548 0
57 -59 -67 69 199 241 0
-472 -548 0
-117 -120 0
-164 -165 -177 0
-462 -465 0
-463 -464 0
-463 -467 0
-169 -172 -173 0
-391 -394 0
134 135 -374 0
-392 -393 0
-392 -396 0
46 399 400 418 0
-369 -371 -385 0
368 369 -371 0
352 -450 516 0
279 -446 449 0
-279 446 449 0
-279 -446 -449 0
32 33 -180 0
28 -180 0
-142 -143 -289 -293 0
-141 -145 -289 -293 0
-26 44 46 48 119 149 279 281 -388 0
-31 33 -180 0
-121 -123 0
-146 -151 156 0
-121 -257 0
-121 -126 0
-129 -130 -154 0
129 130 -154 0
-122 -124 0
-122 -125 0
-122 -257 0
-122 -126 0
-528 -529 0
119 -124 128 0
-119 124 128 0
-119 -124 -128 0
-64 -65 -87 0
26 -46 0
-141 -142 -289 0
141 142 -289 0
139 -289 0
26 -48 0
129 153 0
-129 -153 0
130 155 0
-130 -155 0
-153 -158 0
-391 -392 -395 0
154 -159 0
-155 -160 0
-158 -385 0
-158 -379 0
-445 -446 -448 0
445 446 -448 0
-462 -463 -466 0
-160 -386 0
-160 -379 0
383 387 0
383 389 0
-422 -426 -427 -436 0
384 388 0
384 390 0
-463 -466 472 0
368 370 0
-111 -112 -136 0
369 372 0
-157 -292 0
14 47 308 329 0
-156 -304 0
-14 -47 0
-48 -308 0
-157 -304 0
-20 -22 27 0
-282 -283 -289 0
-18 -23 0
-20 -22 40 0
-20 -23 29 0
18 21 0
-18 -21 0
19 167 0
-255 -256 -286 0
309 310 -313 0
21 168 0
-168 -399 0
-167 -406 0
-46 -400 0
-45 -398 0
-168 -406 0
-45 -400 0
-284 -300 0
183 -310 -313 0
-165 -176 0
-163 167 -173 0
-309 -310 -313 0
-166 -175 0
-166 -178 0
163 169 0
-163 -169 0
164 170 0
-164 -170 0
1 -38 286 289 -335 374 404 425 489 508 531 0
169 172 0
-118 -120 0
170 171 0
170 174 0
6 -59 69 199 241 0
-59 -66 69 79 199 241 0
-13 -549 0
11 -549 0
13 -550 0
-11 -550 0
-11 -113 0
-11 -92 0
12 -93 0
-13 -114 0
-13 -94 0
-92 -107 0
-92 -98 0
-92 -101 0
-92 -222 0
93 -108 0
93 -99 0
93 -102 0
93 -223 0
-94 -109 0
-94 -100 0
-94 -103 0
-94 -224 0
104 -222 0
-104 222 0
104 -225 0
-104 225 0
-207 -233 0
207 -208 252 254 0
105 -223 0
105 -226 0
106 -224 0
-106 224 0
106 -227 0
-106 227 0
106 -239 0
-106 239 0
-104 -430 0
-104 -422 0
105 -425 0
-531 -542 0
-468 -470 -531 -535 0
-425 427 0
-428 -430 0
-425 -430 0
-106 -430 0
-106 -423 0
422 433 0
-422 -433 0
-460 -461 -531 0
423 434 0
-423 -434 0
-436 438 0
101 341 0
101 344 0
102 -342 0
-358 -374 0
103 343 0
103 345 0
61 -201 0
-61 201 0
61 -204 0
-61 204 0
61 -210 0
-61 210 0
61 -344 0
-61 344 0
62 -202 0
62 -205 0
62 -211 0
-361 -363 -365 -374 0
63 -203 0
-63 203 0
63 -206 0
-63 206 0
63 -212 0
-63 212 0
63 -345 0
-63 345 0
61 318 0
-61 -318 0
62 -319 0
63 320 0
-63 -320 0
-318 -474 0
319 -480 0
-20 40 42 0
-480 483 0
-320 -475 0
474 486 0
-474 -486 0
475 487 0
-475 -487 0
-486 -495 0
-489 492 0
-493 -495 0
-489 -495 0
-487 -495 0
195 -213 0
-195 213 0
195 -216 0
-195 216 0
195 -228 0
-195 228 0
195 -243 0
-195 243 0
195 -341 0
-195 341 0
196 -214 0
196 -217 0
196 -244 0
196 -342 0
197 -215 0
-197 215 0
197 -218 0
-197 218 0
197 -229 0
-197 229 0
197 -245 0
-197 245 0
197 -343 0
-197 343 0
195 413 0
195 401 0
-413 -414 -416 0
197 414 0
197 402 0
-401 -410 0
-404 407 0
-408 -410 0
-404 -410 0
-402 -410 0
-416 419 0
98 236 0
98 230 0
98 246 0
99 -237 0
99 -231 0
100 238 0
100 232 0
100 247 0
233 -246 0
-233 246 0
233 -248 0
-233 248 0
234 -247 0
-234 247 0
234 -250 0
-234 250 0
-255 -270 -286 0
-255 264 -286 0
234 254 0
-234 -254 0
207 -251 0
-207 251 0
-256 265 -286 0
-256 -269 -286 0
208 -252 0
-115 -118 0
209 -253 0
-209 253 0
209 -254 0
-209 254 0
-207 -356 0
208 -362 0
-362 365 0
-209 -357 0
356 376 0
-374 -380 0
376 -381 0
-374 376 0
357 376 0
-230 -269 0
-264 -265 -272 0
-232 -270 0
138 -266 0
-138 266 0
138 -269 0
-138 269 0
139 -267 0
140 -268 0
-140 268 0
140 -270 0
-140 270 0
-138 -141 0
139 -144 0
-144 293 0
-140 -142 0
141 282 0
-141 -282 0
142 283 0
-142 -283 0
-282 -296 0
-289 301 0
-296 -302 0
-289 -296 0
-283 -296 0
-255 -261 0
258 -286 0
-259 -261 0
-261 -286 0
-256 -261 0
-272 275 0
58 104 0
-58 -105 223 226 239 0
192 -236 0
-192 236 0
193 -237 0
194 -235 0
-194 235 0
194 -238 0
-194 238 0
192 338 0
192 321 0
-62 202 205 211 -344 -345 0
-336 338 0
194 338 0
194 322 0
-327 330 0
95 -107 0
-95 107 0
96 -108 0
97 -109 0
-97 109 0
97 -110 0
-97 110 0
-95 -458 0
96 -469 0
-476 -489 0
-469 535 0
-97 -459 0
458 460 0
-458 -460 0
-486 -487 -489 0
459 461 0
-459 -461 0
-460 -538 0
-531 545 0
-538 -546 0
-531 -538 0
-461 -538 0
-113 -519 0
-113 -522 0
-113 -114 -505 0
-522 -526 0
-114 -520 0
-114 -522 0
504 519 0
-504 -519 0
506 520 0
-506 -520 0
505 -508 0
505 -514 0
510 -514 0
-508 516 0
-7 -551 0
5 -551 0
7 -552 0
-5 -552 0
5 71 0
5 79 0
5 55 0
5 66 0
6 -56 0
7 72 0
7 80 0
7 57 0
7 67 0
58 -66 0
-58 66 0
58 -68 0
-58 68 0
58 -198 0
-58 198 0
58 -240 0
-58 240 0
-50 -71 -72 74 90 0
59 -69 0
59 -199 0
59 -241 0
60 -67 0
-60 67 0
60 -70 0
-60 70 0
60 -200 0
-60 200 0
60 -242 0
-60 242 0
-208 -233 252 254 0
-208 233 252 -254 0
231 -286 0
60 239 0
-60 -239 0
55 210 0
55 251 0
55 216 0
56 -211 0
56 -252 0
56 -217 0
57 212 0
57 253 0
57 218 0
52 -79 0
-52 79 0
52 -81 0
-52 81 0
349 -371 -372 0
53 -82 0
54 -80 0
-54 80 0
54 -83 0
-54 83 0
52 198 0
52 204 0
52 213 0
52 190 0
53 -199 0
53 -205 0
53 -214 0
54 200 0
54 206 0
54 215 0
54 191 0
104 -105 223 226 239 0
-104 -105 223 226 -239 0
207 233 0
191 235 0
-191 -235 0
49 -71 0
-49 71 0
49 -73 0
-49 73 0
49 -89 0
-49 89 0
-53 -79 -80 82 0
50 -74 0
50 -90 0
51 -72 0
-51 72 0
51 -75 0
-51 75 0
51 -91 0
-51 91 0
51 110 0
-51 -110 0
-4 -553 0
2 -553 0
4 -554 0
-2 -554 0
2 201 0
2 84 0
2 68 0
2 73 0
3 -202 0
3 -69 0
3 -74 0
4 203 0
4 85 0
4 70 0
4 75 0
64 -84 0
-64 84 0
64 -86 0
-64 86 0
65 -85 0
-65 85 0
65 -88 0
-65 88 0
64 219 0
-64 -219 0
65 221 0
-65 -221 0
-219 -225 0
-219 -228 0
220 -226 0
-221 -227 0
-221 -229 0
-10 -555 0
8 -555 0
10 -556 0
-8 -556 0
8 81 0
8 86 0
8 76 0
8 89 0
9 -82 0
9 -87 0
9 -77 0
9 -90 0
10 83 0
10 88 0
10 78 0
10 91 0
76 240 0
76 266 0
76 243 0
76 248 0
77 -241 0
77 -267 0
77 -244 0
77 -249 0
78 242 0
78 268 0
78 245 0
78 250 0
394 -395 396 0
-394 -395 -396 0
-111 -112 -136 -384 -385 395 0
-111 -112 -136 368 369 395 0
-167 -398 0
513 -514 515 0
-513 -514 -515 0
479 -480 481 0
-479 -480 -481 0
468 -469 470 0
-468 -469 -470 0
465 -466 467 0
-465 -466 -467 0
447 -448 449 0
-447 -448 -449 0
435 -436 437 0
-435 -436 -437 0
415 -416 417 0
-415 -416 -417 0
370 -371 372 0
-370 -371 -372 0
361 -362 363 0
-361 -362 -363 0
326 -327 328 0
-326 -327 -328 0
312 -313 314 0
-312 -313 -314 0
271 -272 273 0
-271 -272 -273 0
187 -188 189 0
-187 -188 -189 0
179 -180 181 0
-179 -180 -181 0
176 -177 178 0
-176 -177 -178 0
172 -173 174 0
-172 -173 -174 0
150 -151 152 0
-150 -151 -152 0
143 -144 145 0
-143 -144 -145 0
-49 -95 0
-59 66 67 69 199 241 0
-59 69 71 72 199 241 0
-59 -66 69 71 199 241 0
-59 -67 69 72 199 241 0
-59 69 79 80 199 241 0
149 292 293 299 0
-148 149 292 299 0
148 291 293 299 0
148 -149 291 299 0
-25 -123 -125 136 144 151 173 177 180 188 272 313 327 362 371 416 436 448 466 469 480 514 0
-208 230 232 249 252 0
24 -25 26 0
-24 -25 -26 0
-149 -293 0
-148 -293 0
-148 -291 0
-300 -305 0
84 85 87 -220 0
-208 -246 -247 249 252 0
-117 -441 0
-121 -122 -154 0
-122 -129 -154 0
-423 -424 -427 -436 0
-422 -423 -436 0
-208 238 -247 249 252 0
-151 154 0
349 369 0
315 338 0
24 -148 0
-24 43 45 47 118 148 278 280 348 0
-349 -388 0
-188 309 310 0
-182 -188 309 0
-196 214 217 -227 -228 244 342 0
-196 214 217 -225 -229 244 342 0
-182 -183 -188 0
182 183 -188 0
-191 -193 200 237 0
-193 204 206 237 0
-94 -113 -505 0
163 164 -173 0
167 168 -173 0
-321 -327 333 335 0
-322 -327 334 335 0
-92 -114 -505 0
12 -505 0
-164 168 -173 0
-165 -166 -173 0
-119 -120 0
115 118 120 274 0
-163 -164 -173 0
-404 413 414 0
-401 -404 413 0
58 -105 223 226 -239 0
95 -96 108 110 0
49 -96 108 -110 0
-139 267 -269 -270 0
-34 -36 -180 0
-139 267 269 270 0
-139 231 267 0
-25 123 124 136 144 151 173 177 180 188 272 313 327 362 371 416 436 448 466 469 480 514 0
-25 136 144 151 173 177 180 188 -257 272 313 327 362 371 416 436 448 466 469 480 514 0
373 -374 375 0
-373 -374 -375 0
-14 -16 0
-369 -371 384 0
-111 -112 -136 159 395 0
-111 -112 -136 387 388 395 0
530 -531 532 0
-530 -531 -532 0
507 -508 509 0
-507 -508 -509 0
488 -489 490 0
-488 -489 -490 0
424 -425 426 0
-424 -425 -426 0
403 -404 405 0
-403 -404 -405 0
-347 -355 0
288 -289 290 0
-288 -289 -290 0
285 -286 287 0
-285 -286 -287 0
-28 -29 42 0
-27 -28 40 0
-28 40 42 0
23 -28 -29 0
22 -27 -28 0
22 23 -28 0
29 -41 -42 0
27 -40 -41 0
27 29 -41 0
23 -41 -42 0
22 -40 -41 0
22 23 -41 0
37 -38 39 0
-37 -38 -39 0
-27 -30 -32 0
27 30 34 0
27 32 34 0
-25 121 122 136 144 151 173 177 180 188 272 313 327 362 371 416 436 448 466 469 480 514 0
-25 -129 -130 136 144 151 173 177 180 188 272 313 327 362 371 416 436 448 466 469 480 514 0
-25 -121 -130 136 144 151 173 177 180 188 272 313 327 362 371 416 436 448 466 469 480 514 0
-25 -122 -129 136 144 151 173 177 180 188 272 313 327 362 371 416 436 448 466 469 480 514 0
-25 -131 -133 136 144 151 173 177 180 188 272 313 327 362 371 416 436 448 466 469 480 514 0
-25 -121 -133 136 144 151 173 177 180 188 272 313 327 362 371 416 436 448 466 469 480 514 0
27 -28 29 0
-27 -28 -29 0
-29 -31 -33 0
29 31 36 0
29 33 36 0
-34 -182 -309 0
-208 246 247 249 252 0
-208 236 238 249 252 0
-309 311 -312 -313 0
47 311 -313 0
-309 -312 -313 0
47 -312 -313 0
34 -35 36 0
-34 -35 -36 0
-36 -183 -310 0
-16 -323 0
-392 -395 472 0
-392 -395 -462 0
-186 -187 -188 0
-395 454 0
-196 214 217 -228 -229 244 342 0
-196 214 217 228 229 244 342 0
-196 214 217 220 244 342 0
185 186 189 0
348 349 -371 0
311 -313 -314 0
111 112 -395 0
-111 -112 -395 0
-183 -188 310 0
-188 -315 0
35 -188 0
47 309 0
-47 -309 -312 0
-310 -311 -314 0
-31 -44 181 0
-31 44 -181 0
31 -44 -181 0
-25 -122 -131 136 144 151 173 177 180 188 272 313 327 362 371 416 436 448 466 469 480 514 0
-25 41 136 144 151 173 177 180 188 272 313 327 362 371 416 436 448 466 469 480 514 0
-118 -123 -127 0
118 -123 127 0
-118 123 127 0
-121 -132 -133 0
-122 -131 -132 0
-121 -122 -132 0
-129 -132 -133 0
-130 -131 -132 0
-129 -130 -132 0
146 147 -151 0
-151 -158 -160 0
-25 121 -125 136 144 151 173 177 180 188 272 313 327 362 371 416 436 448 466 469 480 514 0
-25 121 123 136 144 151 173 177 180 188 272 313 327 362 371 416 436 448 466 469 480 514 0
115 121 123 126 257 0
-25 -115 -125 136 144 151 173 177 180 188 272 313 327 362 371 416 436 448 466 469 480 514 0
24 -136 137 0
-111 -136 137 0
-24 -136 -137 0
-24 -111 0
40 -41 42 0
-40 -41 -42 0
-131 -445 -453 0
-131 -453 -456 0
-131 -450 -453 0
-451 -452 -456 0
-450 -451 -457 0
-451 -456 -457 0
-445 -451 -452 0
-446 -450 -451 0
-445 -446 -451 0
-451 -452 455 0
-450 -451 453 0
-451 453 455 0
169 170 -173 0
-169 -170 -173 0
131 -132 133 0
-131 -132 -133 0
-133 -446 -455 0
-133 -455 -457 0
-133 -450 -455 0
391 453 462 0
-391 -453 -471 0
-453 -462 -471 0
165 166 -177 0
167 168 -177 0
462 -464 465 -466 0
-38 134 135 286 289 404 425 489 508 531 0
-38 -134 -135 286 289 404 425 489 508 531 0
280 -393 -395 0
462 465 -466 -467 0
280 462 465 0
-280 -464 -466 0
280 -395 -396 0
280 -391 0
-280 391 394 0
453 -454 455 0
-453 -454 -455 0
392 455 463 0
-392 -455 -472 0
-455 -463 -472 0
-505 -519 -520 0
-505 519 520 0
-166 168 -177 0
-163 -166 -177 0
-464 -465 -466 0
20 -177 0
159 -371 0
-371 -379 0
-280 -466 -467 0
-280 -462 0
463 464 467 0
-169 171 -172 -173 0
45 -172 -173 0
-393 -394 -395 0
45 169 0
196 -404 0
-402 -404 414 0
391 -393 394 -395 0
391 -395 -396 0
392 393 396 0
450 -516 0
430 501 0
-121 -130 -154 0
-131 -133 -154 0
-129 -133 -154 0
-30 43 -179 0
30 43 179 0
-25 -115 -124 136 144 151 173 177 180 188 272 313 327 362 371 416 436 448 466 469 480 514 0
-115 -121 0
-30 -43 179 0
30 -43 -179 0
-143 -145 -289 -293 0
-289 -305 0
111 -136 -137 0
24 111 0
-146 -153 -156 0
146 153 158 0
153 156 158 0
-161 162 0
391 392 -395 0
-395 471 472 0
184 -186 187 -188 0
17 162 0
161 -162 0
17 161 0
184 187 -188 -189 0
47 184 187 0
-47 -186 -188 0
153 -154 155 0
-153 -154 -155 0
-147 -155 -157 0
147 155 160 0
155 157 160 0
-158 -368 -383 0
-448 453 455 0
-445 -448 453 0
-446 -448 455 0
462 463 -466 0
-466 471 472 0
-349 -369 -372 0
-448 -456 -457 0
-445 -448 -457 0
-446 -448 -456 0
-111 -112 -136 -389 -390 395 0
-368 -370 -371 0
348 -370 -371 0
158 -159 160 0
-158 -159 -160 0
-160 -369 -384 0
-308 -338 0
-383 -387 -389 0
-111 -112 -136 368 -383 395 0
1 -38 286 289 321 322 374 404 425 489 508 531 0
1 -38 286 289 321 -333 374 404 425 489 508 531 0
422 423 -436 0
-430 -436 0
105 -436 0
-448 -450 0
132 -448 0
-384 -388 -390 0
454 -466 0
-111 -112 -136 389 390 395 0
-391 -392 -466 0
-392 -462 -466 0
1 3 6 9 12 111 112 0
348 368 0
-348 -368 -370 0
-111 -112 -136 387 -389 395 0
-17 -162 0
-17 -161 0
-147 -149 152 0
-147 149 -152 0
147 -149 -152 0
-47 -188 -189 0
-47 -184 0
-30 -31 -180 0
-278 -445 -447 0
278 -445 447 0
-278 445 447 0
-20 -23 42 0
18 23 0
282 283 -289 0
19 163 165 0
-19 -163 -167 0
-19 -165 -167 0
-313 -316 -317 0
-309 -313 -317 0
165 -175 176 -177 0
255 256 -286 0
-269 -270 -286 0
-190 -193 235 237 0
165 176 -177 -178 0
45 165 176 0
-45 -175 -177 0
192 -193 235 237 0
190 -193 -235 237 0
190 192 0
19 -20 21 0
-19 -20 -21 0
21 164 166 0
-21 -164 -168 0
-21 -166 -168 0
182 183 -313 0
-313 -315 0
-175 -176 -177 0
35 -313 0
-163 -166 -173 0
-164 -165 -173 0
20 -173 0
-45 -177 -178 0
-45 -165 0
166 175 178 0
-192 -193 -235 237 0
-190 -192 0
1 -38 286 289 322 -334 374 404 425 489 508 531 0
171 -173 -174 0
1 -38 286 289 338 374 404 425 489 508 531 0
1 -38 286 289 333 334 374 404 425 489 508 531 0
115 118 -119 274 0
116 119 120 274 0
116 -118 119 274 0
-170 -171 -174 0
-11 13 549 0
11 -13 550 0
11 92 113 0
-93 -94 -113 0
-92 -93 -114 0
-93 -113 -114 0
41 -154 0
-130 -131 -154 0
11 -12 13 0
-11 -12 -13 0
13 94 114 0
-101 -223 -224 0
-103 -222 -223 0
-101 -103 -223 0
-98 -223 -224 0
-100 -222 -223 0
-98 -100 -223 0
-107 -223 -224 0
-109 -222 -223 0
-107 -109 -223 0
-102 -103 -222 0
-101 -102 -224 0
-102 -222 -224 0
-98 -102 -103 0
-100 -101 -102 0
-98 -100 -102 0
-102 -103 -107 0
-101 -102 -109 0
-102 -107 -109 0
-99 -100 -222 0
-98 -99 -224 0
-99 -222 -224 0
-99 -100 -101 0
-98 -99 -103 0
-99 -101 -103 0
-99 -100 -107 0
-98 -99 -109 0
-99 -107 -109 0
-108 -109 -222 0
-107 -108 -224 0
-108 -222 -224 0
-101 -108 -109 0
-103 -107 -108 0
-101 -103 -108 0
-98 -108 -109 0
-100 -107 -108 0
-98 -100 -108 0
92 -93 94 0
-92 -93 -94 0
264 265 -286 0
225 -226 227 0
-225 -226 -227 0
222 -223 224 0
-222 -223 -224 0
-104 -424 -427 0
-422 -431 -432 0
-423 -430 -431 0
-422 -423 -431 0
426 -428 -429 0
424 -427 -428 0
424 426 -428 0
-422 -428 -429 0
-423 -427 -428 0
-422 -423 -428 0
-422 -425 -426 0
-423 -424 -425 0
-422 -423 -425 0
104 -105 106 0
-104 -105 -106 0
-106 -426 -427 0
-458 -470 -531 -535 0
-459 -468 -531 -535 0
-433 -501 0
-433 -435 -438 0
433 435 501 0
433 438 501 0
437 -439 -440 0
435 -438 -439 0
435 437 -439 0
460 461 -531 0
-20 -22 -23 0
-434 -501 0
-434 -437 -438 0
434 437 501 0
434 438 501 0
-101 -341 -344 0
-356 -363 -365 -374 0
-357 -361 -365 -374 0
-356 -357 -374 0
-342 -343 345 0
-341 -342 344 0
-342 344 345 0
101 -102 103 0
-101 -102 -103 0
-103 -343 -345 0
356 357 -374 0
208 -374 0
210 -211 212 0
-210 -211 -212 0
204 -205 206 0
-204 -205 -206 0
201 -202 203 0
-201 -202 -203 0
61 -62 63 0
-61 -62 -63 0
-318 -476 0
-318 -479 -483 0
481 -484 -485 0
479 -483 -484 0
479 481 -484 0
-474 -484 -485 0
-475 -483 -484 0
-474 -475 -484 0
-474 -480 -481 0
-475 -479 -480 0
-474 -475 -480 0
-474 -477 -478 0
-475 -476 -477 0
-474 -475 -477 0
318 -319 320 0
-318 -319 -320 0
-320 -476 0
-320 -481 -483 0
-347 379 0
376 379 0
-486 -488 -492 0
486 488 495 0
486 492 495 0
490 -493 -494 0
488 -492 -493 0
488 490 -493 0
-487 -490 -492 0
487 490 495 0
487 492 495 0
341 -342 343 0
-341 -342 -343 0
243 -244 245 0
-243 -244 -245 0
216 -217 218 0
-216 -217 -218 0
213 -214 215 0
-213 -214 -215 0
-195 -401 -413 0
413 414 -416 0
401 402 -416 0
401 -413 -416 0
195 -196 197 0
-195 -196 -197 0
-197 -402 -414 0
-401 -403 -407 0
401 403 410 0
401 407 410 0
405 -408 -409 0
403 -407 -408 0
403 405 -408 0
402 -414 -416 0
196 -416 0
-402 -405 -407 0
402 405 410 0
402 407 410 0
-413 -498 0
-413 -415 -419 0
413 415 498 0
413 419 498 0
417 -420 -421 0
415 -419 -420 0
415 417 -420 0
-414 -498 0
-414 -417 -419 0
414 417 498 0
414 419 498 0
-231 -232 247 0
-230 -231 246 0
-231 246 247 0
-231 -232 238 0
-230 -231 236 0
-231 236 238 0
-237 -238 247 0
-236 -237 246 0
-237 246 247 0
232 -237 -238 0
230 -236 -237 0
230 232 -237 0
98 -99 100 0
-98 -99 -100 0
248 -249 250 0
-248 -249 -250 0
-191 -193 206 237 0
251 -252 253 0
-251 -252 -253 0
-207 -358 0
-207 -361 -365 0
363 -366 -367 0
361 -365 -366 0
361 363 -366 0
-356 -366 -367 0
-357 -365 -366 0
-356 -357 -366 0
-356 -362 -363 0
-357 -361 -362 0
-356 -357 -362 0
-356 -359 -360 0
-357 -358 -359 0
-356 -357 -359 0
207 -208 209 0
-207 -208 -209 0
-209 -358 0
-209 -363 -365 0
356 373 380 0
-356 -373 -376 0
-356 -376 -380 0
-373 -381 -382 0
-375 -380 -381 0
-373 -375 -381 0
357 375 380 0
-357 -375 -376 0
-357 -376 -380 0
-230 -255 -264 0
230 264 269 0
230 255 269 0
264 265 -272 0
-269 -270 -272 0
-264 -270 -272 0
24 -43 0
-265 -269 -272 0
255 256 -272 0
255 -264 -272 0
-348 -387 0
230 -231 232 0
-230 -231 -232 0
-232 -256 -265 0
232 265 270 0
232 256 270 0
266 -267 268 0
-266 -267 -268 0
-138 -305 0
-138 -143 -293 0
145 -294 -295 0
143 -293 -294 0
143 145 -294 0
-141 -294 -295 0
-142 -293 -294 0
-141 -142 -294 0
-141 -144 -145 0
-142 -143 -144 0
-141 -142 -144 0
-141 -306 -307 0
-142 -305 -306 0
-141 -142 -306 0
138 -139 140 0
-138 -139 -140 0
-140 -305 0
-140 -145 -293 0
-188 -316 -317 0
-182 -188 -317 0
-282 -288 -301 0
282 288 296 0
282 296 301 0
290 -302 -303 0
288 -301 -302 0
288 290 -302 0
433 434 -436 0
-283 -290 -301 0
283 290 296 0
283 296 301 0
-255 -258 -285 0
255 261 285 0
255 258 261 0
-259 -260 287 0
-258 -259 285 0
-259 285 287 0
256 -265 -272 0
231 -272 0
-256 -258 -287 0
256 261 287 0
256 258 261 0
-264 -441 0
-264 -271 -275 0
264 271 441 0
264 275 441 0
273 -276 -277 0
271 -275 -276 0
271 273 -276 0
-265 -441 0
-265 -273 -275 0
265 273 441 0
265 275 441 0
236 -237 238 0
-236 -237 -238 0
-207 -208 252 -254 0
59 -105 223 226 0
192 333 335 0
322 -339 -340 0
321 -338 -339 0
321 322 -339 0
-333 -336 -337 0
-334 -335 -336 0
-333 -334 -336 0
322 -336 -337 0
321 -335 -336 0
321 322 -336 0
192 -193 194 0
-192 -193 -194 0
194 334 335 0
-321 -323 0
-321 -326 -330 0
321 323 326 0
321 323 330 0
328 -331 -332 0
326 -330 -331 0
326 328 -331 0
-62 202 205 211 344 345 0
-62 202 205 211 341 343 0
-322 -323 0
-322 -328 -330 0
322 323 328 0
322 323 330 0
107 -108 109 0
-107 -108 -109 0
-95 -542 0
-95 -468 -535 0
470 -536 -537 0
468 -535 -536 0
468 470 -536 0
-458 -536 -537 0
-459 -535 -536 0
-458 -459 -536 0
-458 -469 -470 0
-459 -468 -469 0
-458 -459 -469 0
-458 -543 -544 0
-459 -542 -543 0
-458 -459 -543 0
95 -96 97 0
-95 -96 -97 0
-97 -542 0
-97 -470 -535 0
-479 -481 -483 -489 0
-474 -481 -483 -489 0
-460 -530 -545 0
460 530 538 0
460 538 545 0
532 -546 -547 0
530 -545 -546 0
530 532 -546 0
486 487 -489 0
-20 22 23 0
-461 -532 -545 0
461 532 538 0
461 538 545 0
-113 -525 0
-519 -523 -524 0
-520 -522 -523 0
-519 -520 -523 0
-519 -526 -527 0
-520 -525 -526 0
-519 -520 -526 0
-114 -525 0
193 -327 0
-504 -507 -516 0
-504 -510 -513 0
504 510 516 0
504 513 516 0
504 507 510 0
504 507 513 0
-511 -512 515 0
-510 -511 513 0
-511 513 515 0
509 -517 -518 0
507 -516 -517 0
507 509 -517 0
504 -505 506 0
-504 -505 -506 0
-506 -509 -516 0
-506 -510 -515 0
506 510 516 0
506 515 516 0
506 509 510 0
506 509 515 0
-5 7 551 0
5 -7 552 0
-50 71 72 74 90 0
-50 74 79 80 90 0
-50 -71 74 79 90 0
-50 -72 74 80 90 0
-50 55 57 74 90 0
-50 55 -71 74 90 0
-50 57 -72 74 90 0
-50 66 67 74 90 0
-50 66 -71 74 90 0
-56 -57 67 0
-55 -56 66 0
-56 66 67 0
-56 -57 80 0
-55 -56 79 0
-56 79 80 0
-56 -57 72 0
-55 -56 71 0
-56 71 72 0
-1 -134 -135 0
-111 -112 -134 -135 549 550 551 552 553 554 555 556 0
111 112 -134 -135 549 550 551 552 553 554 555 556 0
-369 -371 -372 0
-1 134 135 0
-111 -112 134 135 549 550 551 552 553 554 555 556 0
111 112 134 135 549 550 551 552 553 554 555 556 0
-53 79 80 82 0
-53 71 72 82 0
-53 71 -79 82 0
-53 72 -80 82 0
-53 55 57 82 0
-53 55 -79 82 0
-53 57 -80 82 0
-53 66 67 82 0
-53 66 -79 82 0
5 -6 7 0
-5 -6 -7 0
240 -241 242 0
-240 -241 -242 0
198 -199 200 0
-198 -199 -200 0
68 -69 70 0
-68 -69 -70 0
-50 67 -72 74 90 0
6 -50 74 90 0
58 -59 60 0
-58 -59 -60 0
-217 -218 253 0
-216 -217 251 0
-217 251 253 0
212 -217 -218 0
210 -216 -217 0
210 212 -217 0
218 -252 -253 0
216 -251 -252 0
216 218 -252 0
212 -252 -253 0
210 -251 -252 0
210 212 -252 0
-211 -212 218 0
-210 -211 216 0
-211 216 218 0
-211 -212 253 0
-210 -211 251 0
-211 251 253 0
55 -56 57 0
-55 -56 -57 0
81 -82 83 0
-81 -82 -83 0
-281 -393 0
281 393 0
191 -214 -215 0
190 -213 -214 0
190 191 -214 0
206 -214 -215 0
204 -213 -214 0
204 206 -214 0
200 -214 -215 0
198 -213 -214 0
198 200 -214 0
191 -205 -206 0
190 -204 -205 0
190 191 -205 0
-205 -206 215 0
-204 -205 213 0
-205 213 215 0
200 -205 -206 0
198 -204 -205 0
198 200 -205 0
191 -199 -200 0
190 -198 -199 0
190 191 -199 0
-199 -200 215 0
-198 -199 213 0
-199 213 215 0
-199 -200 206 0
-198 -199 204 0
-199 204 206 0
52 -53 54 0
-52 -53 -54 0
89 -90 91 0
-89 -90 -91 0
73 -74 75 0
-73 -74 -75 0
-53 67 -80 82 0
6 -53 82 0
49 -50 51 0
-49 -50 -51 0
-2 4 553 0
2 -4 554 0
70 -74 -75 0
68 -73 -74 0
68 70 -74 0
-74 -75 85 0
-73 -74 84 0
-74 84 85 0
-74 -75 203 0
-73 -74 201 0
-74 201 203 0
-69 -70 75 0
-68 -69 73 0
-69 73 75 0
-69 -70 85 0
-68 -69 84 0
-69 84 85 0
-69 -70 203 0
-68 -69 201 0
-69 201 203 0
75 -202 -203 0
73 -201 -202 0
73 75 -202 0
70 -202 -203 0
68 -201 -202 0
68 70 -202 0
85 -202 -203 0
84 -201 -202 0
84 85 -202 0
2 -3 4 0
-2 -3 -4 0
86 -87 88 0
-86 -87 -88 0
219 225 228 0
-226 -227 -228 0
-225 -226 -229 0
-226 -228 -229 0
219 -220 221 0
-219 -220 -221 0
221 227 229 0
-8 10 555 0
8 -10 556 0
78 -90 -91 0
76 -89 -90 0
76 78 -90 0
88 -90 -91 0
86 -89 -90 0
86 88 -90 0
83 -90 -91 0
81 -89 -90 0
81 83 -90 0
-77 -78 91 0
-76 -77 89 0
-77 89 91 0
-77 -78 88 0
-76 -77 86 0
-77 86 88 0
-77 -78 83 0
-76 -77 81 0
-77 81 83 0
-87 -88 91 0
-86 -87 89 0
-87 89 91 0
78 -87 -88 0
76 -86 -87 0
76 78 -87 0
83 -87 -88 0
81 -86 -87 0
81 83 -87 0
-82 -83 91 0
-81 -82 89 0
-82 89 91 0
78 -82 -83 0
76 -81 -82 0
76 78 -82 0
-82 -83 88 0
-81 -82 86 0
-82 86 88 0
8 -9 10 0
-8 -9 -10 0
245 -249 -250 0
243 -248 -249 0
243 245 -249 0
-249 -250 268 0
-248 -249 266 0
-249 266 268 0
242 -249 -250 0
240 -248 -249 0
240 242 -249 0
-244 -245 250 0
-243 -244 248 0
-244 248 250 0
-244 -245 268 0
-243 -244 266 0
-244 266 268 0
242 -244 -245 0
240 -243 -244 0
240 242 -244 0
250 -267 -268 0
248 -266 -267 0
248 250 -267 0
245 -267 -268 0
243 -266 -267 0
243 245 -267 0
242 -267 -268 0
240 -266 -267 0
240 242 -267 0
-241 -242 250 0
-240 -241 248 0
-241 248 250 0
-241 -242 245 0
-240 -241 243 0
-241 243 245 0
-241 -242 268 0
-240 -241 266 0
-241 266 268 0
76 -77 78 0
-76 -77 -78 0
397 399 0
397 398 0
-25 -126 136 144 151 173 177 180 188 272 313 327 362 371 416 436 448 466 469 480 514 0
99 -208 249 252 0
315 335 0
351 444 0
350 444 0
-22 -27 -37 -40 0
-23 -29 -39 -42 0
-30 -32 34 -35 0
-31 -33 -35 36 0
34 309 315 316 0
34 182 315 316 0
-321 -322 -327 0
321 322 -327 0
36 310 315 317 0
36 183 315 317 0
528 534 0
528 533 0
40 121 129 131 0
42 122 130 133 0
131 445 450 456 0
133 446 450 457 0
-505 -522 0
-146 -156 158 -159 0
-147 -157 -159 160 0
158 368 379 385 0
158 379 383 385 0
24 -278 0
160 369 379 386 0
160 379 384 386 0
117 300 355 444 528 0
104 422 424 430 0
104 422 427 430 0
-458 -459 -531 0
458 459 -531 0
96 -531 0
-424 -427 -431 -432 0
-426 -427 -430 -431 0
-424 -426 -427 -431 0
106 423 426 430 0
106 423 427 430 0
-439 -501 0
-436 -501 0
-435 -438 -502 -503 0
-437 -438 -501 -502 0
-435 -437 -438 -502 0
318 474 476 479 0
318 474 476 483 0
-348 -353 0
347 376 0
168 399 400 406 0
-347 -376 0
-476 -484 0
-476 -480 0
-477 -478 -479 -483 0
-476 -477 -481 -483 0
-477 -479 -481 -483 0
320 475 476 481 0
320 475 476 483 0
-488 -492 -496 -497 0
-490 -492 -495 -496 0
-488 -490 -492 -496 0
-403 -407 -411 -412 0
-405 -407 -410 -411 0
-403 -405 -407 -411 0
-420 -498 0
-416 -498 0
-415 -419 -499 -500 0
-417 -419 -498 -499 0
-415 -417 -419 -499 0
-98 -230 -236 -246 0
-100 -232 -238 -247 0
207 356 358 361 0
207 356 358 365 0
-358 -366 0
-358 -362 0
-359 -360 -361 -365 0
-358 -359 -363 -365 0
-359 -361 -363 -365 0
209 357 358 363 0
209 357 358 365 0
375 -377 -378 380 0
373 -376 -377 380 0
373 375 -377 380 0
138 141 143 305 0
138 141 293 305 0
-184 -185 -188 0
184 185 -188 0
190 191 -193 237 0
-190 -191 -193 237 0
-294 -305 0
-144 -305 0
-143 -293 -306 -307 0
-145 -293 -305 -306 0
-143 -145 -293 -306 0
140 142 145 305 0
140 142 293 305 0
-288 -297 -298 -301 0
-290 -296 -297 -301 0
-288 -290 -297 -301 0
-258 -262 -263 -285 0
-258 -261 -262 -287 0
-258 -262 -285 -287 0
-276 -441 0
-272 -441 0
-271 -275 -442 -443 0
-273 -275 -441 -442 0
-271 -273 -275 -442 0
-192 -321 -333 -338 0
-192 -321 -335 -338 0
-62 202 205 211 341 -344 0
-62 202 205 211 343 -345 0
-62 102 202 205 211 0
334 335 -339 -340 0
333 335 -338 -339 0
333 334 335 -339 0
-194 -322 -334 -338 0
-194 -322 -335 -338 0
-323 -331 0
-323 -327 0
-324 -325 -326 -330 0
-323 -324 -328 -330 0
-324 -326 -328 -330 0
95 458 468 542 0
95 458 535 542 0
-475 -479 -483 -489 0
-474 -475 -489 0
474 475 -489 0
319 -489 0
-536 -542 0
-469 -542 0
-468 -535 -543 -544 0
-470 -535 -542 -543 0
-468 -470 -535 -543 0
97 459 470 542 0
97 459 535 542 0
-530 -539 -540 -545 0
-532 -538 -539 -545 0
-530 -532 -539 -545 0
113 519 522 525 0
-523 -525 0
-327 338 0
114 520 522 525 0
-507 -514 -515 -516 0
-509 -513 -514 -516 0
-507 -509 -514 -516 0
-507 -511 -512 -516 0
-509 -510 -511 -516 0
-507 -509 -511 -516 0
-508 -509 -510 -513 0
-507 -508 -510 -515 0
-508 -510 -513 -515 0
-510 -513 -517 -518 0
-510 -515 -516 -517 0
-510 -513 -515 -517 0
-55 -210 -216 -251 0
-57 -212 -218 -253 0
24 -280 0
-84 -85 87 -220 0
-147 -151 -158 0
122 124 125 126 257 0
92 98 101 107 222 0
94 100 103 109 224 0
-5 -55 -66 -71 -79 0
-7 -57 -67 -72 -80 0
-52 -190 -198 -204 -213 0
-54 -191 -200 -206 -215 0
-2 -68 -73 -84 -201 0
-4 -70 -75 -85 -203 0
-8 -76 -81 -86 -89 0
-10 -78 -83 -88 -91 0
-76 -240 -243 -248 -266 0
-78 -242 -245 -250 -268 0
